Route #1: 6 55 34 12 53 19 60 2 49 58 13 64 29 30 24
Route #2: 15 38 46 54 33 42 61 51 31 17 36
Route #3: 
Route #4: 27 48 65 7 23 10 16 18 47 32 35
Route #5: 37 4 5 28 44
Route #6: 56 14 20 26 59 21 43 62 39 3 25 63 22 57 9 41 45 11
Route #7: 1 52 8 40
Route #8: 50
Route #9: 
cost 1773.5612858009679
